p edge 30 117 5
v 8 5 9 13 15 17 23 24 28
v 4 8 19 26 29
v 4 12 21 22 27
v 10 2 4 6 7 11 14 16 18 20 30
v 4 1 3 10 25
e 1 6
e 1 10
e 1 16
e 1 26
e 2 7
e 2 8
e 2 9
e 2 13
e 2 20
e 2 24
e 3 12
e 3 15
e 3 16
e 3 17
e 3 23
e 3 26
e 3 27
e 4 6
e 4 10
e 4 12
e 4 13
e 4 24
e 4 29
e 5 14
e 5 15
e 5 16
e 5 21
e 5 22
e 5 25
e 5 29
e 5 30
e 6 7
e 6 9
e 6 11
e 6 12
e 6 16
e 6 19
e 6 24
e 7 12
e 7 13
e 7 19
e 7 20
e 7 22
e 7 27
e 8 9
e 8 12
e 8 14
e 8 15
e 8 24
e 8 28
e 9 10
e 9 11
e 9 16
e 9 18
e 9 20
e 9 23
e 9 24
e 9 25
e 9 27
e 10 12
e 10 19
e 10 22
e 10 27
e 10 30
e 11 13
e 11 14
e 11 15
e 11 18
e 11 23
e 11 28
e 12 16
e 12 19
e 12 20
e 12 24
e 12 28
e 13 14
e 13 15
e 13 17
e 13 18
e 13 26
e 14 18
e 14 20
e 14 21
e 14 24
e 14 25
e 14 27
e 14 28
e 14 29
e 15 16
e 15 30
e 16 19
e 16 21
e 16 29
e 17 18
e 17 19
e 17 21
e 17 22
e 17 23
e 17 26
e 17 28
e 18 20
e 18 24
e 19 20
e 19 29
e 20 23
e 20 25
e 21 28
e 21 30
e 22 23
e 22 26
e 22 28
e 22 29
e 22 30
e 23 25
e 23 28
e 25 28
e 26 29
